cases/matpower/case5_pwlc.m
ipopt
ACP
[warn | PowerModels]: added zero cost function data for dclines
[warn | PowerModels]: the from bus voltage setpoint on dc line 1 does not match the value at bus 1
[warn | PowerModels]: the to bus voltage setpoint on dc line 1 does not match the value at bus 10
[warn | PowerModels]: exending the pwl costs model on generator 4 by -0.23 to include the minimum active power value 0.0
[warn | PowerModels]: exending the pwl costs model on generator 4 by 1.4599999999999997 to include the maximum active power value 2.0
[warn | PowerModels]: exending the pwl costs model on generator 1 by 0.40800000000000003 to include the maximum active power value 0.4
[warn | PowerModels]: simplifying pwl cost on generator 1, [-0.001, 0.0, 0.0, 0.0, 0.001, 0.0, 0.41000000000000003, 0.0] -> [-0.001, 0.0, 0.41000000000000003, 0.0]
[warn | PowerModels]: exending the pwl costs model on generator 5 by -0.08 to include the minimum active power value 0.0
[warn | PowerModels]: exending the pwl costs model on generator 5 by 5.91 to include the maximum active power value 6.0
[warn | PowerModels]: exending the pwl costs model on generator 2 by 0.20999999999999996 to include the maximum active power value 1.7
[warn | PowerModels]: simplifying pwl cost on generator 2, [0.0, 841.0, 0.2, 841.0, 1.0, 841.0, 1.71, 841.0] -> [0.0, 841.0, 1.71, 841.0]
[warn | PowerModels]: exending the pwl costs model on generator 3 by -1.71 to include the minimum active power value 0.0
[warn | PowerModels]: exending the pwl costs model on generator 3 by 1.6600000000000001 to include the maximum active power value 5.2

******************************************************************************
This program contains Ipopt, a library for large-scale nonlinear optimization.
 Ipopt is released as open source code under the Eclipse Public License (EPL).
         For more information visit http://projects.coin-or.org/Ipopt
******************************************************************************

This is Ipopt version 3.13.2, running with linear solver mumps.
NOTE: Other linear solvers might be more efficient (see Ipopt documentation).

Number of nonzeros in equality constraint Jacobian...:       81
Number of nonzeros in inequality constraint Jacobian.:       24
Number of nonzeros in Lagrangian Hessian.............:        0

Total number of variables............................:       36
                     variables with only lower bounds:        0
                variables with lower and upper bounds:       31
                     variables with only upper bounds:        0
Total number of equality constraints.................:       25
Total number of inequality constraints...............:       12
        inequality constraints with only lower bounds:        6
   inequality constraints with lower and upper bounds:        0
        inequality constraints with only upper bounds:        6

iter    objective    inf_pr   inf_du lg(mu)  ||d||  lg(rg) alpha_du alpha_pr  ls
   0  2.3089486e+03 3.99e+00 7.71e+00  -1.0 0.00e+00    -  0.00e+00 0.00e+00   0
   1  7.1250608e+03 3.79e+00 1.47e+01  -1.0 2.80e+00    -  3.66e-03 5.12e-02h  1
   2  8.2349671e+03 3.60e+00 1.40e+01  -1.0 5.97e+00    -  2.87e-02 4.88e-02f  1
   3  6.7136317e+03 3.40e+00 1.31e+01  -1.0 7.14e+00    -  1.17e-01 5.65e-02f  1
   4  1.0154041e+04 2.95e+00 3.28e+01  -1.0 4.34e+00    -  5.96e-01 1.32e-01h  1
   5  4.2677478e+04 6.44e-02 2.46e+01  -1.0 3.77e+00    -  1.86e-01 9.78e-01h  1
   6  4.4339921e+04 4.44e-16 1.61e+01  -1.0 4.34e-01    -  3.84e-01 1.00e+00h  1
   7  4.5577166e+04 8.88e-16 2.68e+01  -1.0 4.96e-01    -  3.80e-01 1.00e+00f  1
   8  4.4950353e+04 8.88e-16 1.00e-06  -1.0 5.21e-01    -  1.00e+00 1.00e+00f  1
   9  4.2674383e+04 8.88e-16 4.49e-01  -2.5 9.18e-02    -  9.17e-01 8.08e-01f  1
iter    objective    inf_pr   inf_du lg(mu)  ||d||  lg(rg) alpha_du alpha_pr  ls
  10  4.2605557e+04 8.88e-16 2.26e+00  -2.5 2.72e-01    -  9.48e-01 1.00e+00f  1
  11  4.2600643e+04 8.88e-16 2.83e-08  -2.5 6.20e-01    -  1.00e+00 1.00e+00f  1
  12  4.2568917e+04 8.88e-16 3.08e-01  -3.8 1.18e-01    -  9.12e-01 9.80e-01f  1
  13  4.2568034e+04 8.88e-16 1.50e-09  -3.8 2.45e-02    -  1.00e+00 1.00e+00f  1
  14  4.2566099e+04 8.88e-16 3.77e-02  -5.7 1.50e-03    -  6.79e-01 9.62e-01f  1
  15  4.2565827e+04 8.88e-16 4.02e-03  -5.7 1.39e-03    -  8.04e-01 1.00e+00f  1
  16  4.2565785e+04 4.44e-16 1.84e-11  -5.7 5.92e-03    -  1.00e+00 1.00e+00f  1
  17  4.2565752e+04 6.66e-16 4.96e-05  -8.6 2.13e-04    -  9.67e-01 1.00e+00f  1
  18  4.2565752e+04 8.88e-16 2.51e-14  -8.6 1.19e-03    -  1.00e+00 1.00e+00f  1

Number of Iterations....: 18

                                   (scaled)                 (unscaled)
Objective...............:   2.2862319470903067e+01    4.2565752260511421e+04
Dual infeasibility......:   2.5059035607045783e-14    4.6655664264266009e-11
Constraint violation....:   5.7411853049416093e-16    8.8817841970012523e-16
Complementarity.........:   2.5503655355184919e-09    4.7483470649943891e-06
Overall NLP error.......:   2.5503655355184919e-09    4.7483470649943891e-06


Number of objective function evaluations             = 19
Number of objective gradient evaluations             = 19
Number of equality constraint evaluations            = 19
Number of inequality constraint evaluations          = 19
Number of equality constraint Jacobian evaluations   = 1
Number of inequality constraint Jacobian evaluations = 1
Number of Lagrangian Hessian evaluations             = 1
Total CPU secs in IPOPT (w/o function evaluations)   =      0.237
Total CPU secs in NLP function evaluations           =      0.208

EXIT: Optimal Solution Found.
This is Ipopt version 3.13.2, running with linear solver mumps.
NOTE: Other linear solvers might be more efficient (see Ipopt documentation).

Number of nonzeros in equality constraint Jacobian...:      202
Number of nonzeros in inequality constraint Jacobian.:       48
Number of nonzeros in Lagrangian Hessian.............:      264

Total number of variables............................:       66
                     variables with only lower bounds:        0
                variables with lower and upper bounds:       61
                     variables with only upper bounds:        0
Total number of equality constraints.................:       48
Total number of inequality constraints...............:       24
        inequality constraints with only lower bounds:        6
   inequality constraints with lower and upper bounds:        0
        inequality constraints with only upper bounds:       18

The equality constraints contain an invalid number

Number of Iterations....: 0

Number of objective function evaluations             = 0
Number of objective gradient evaluations             = 1
Number of equality constraint evaluations            = 1
Number of inequality constraint evaluations          = 1
Number of equality constraint Jacobian evaluations   = 1
Number of inequality constraint Jacobian evaluations = 1
Number of Lagrangian Hessian evaluations             = 0
Total CPU secs in IPOPT (w/o function evaluations)   =      1.002
Total CPU secs in NLP function evaluations           =      0.021

EXIT: Invalid number in NLP function or derivative detected.
Time to Solution........:1.0699670314788818
